60
1 0 3
2 0 2
2 1 2
3 0 3
3 1 1
3 2 3
4 0 2
4 1 1
4 2 2
4 3 3
5 0 3
5 1 2
5 2 3
5 3 1
5 4 3
6 0 3
6 1 1
6 2 2
6 3 2
6 4 3
6 5 2
7 0 2
7 1 2
7 2 3
7 3 3
7 4 3
7 5 2
7 6 3
8 0 3
8 1 2
8 2 2
8 3 1
8 4 3
8 5 1
8 6 2
8 7 2
9 0 2
9 1 3
9 2 3
9 3 1
9 4 1
9 5 1
9 6 1
9 7 1
9 8 2
10 0 2
10 1 1
10 2 2
10 3 2
10 4 3
10 5 1
10 6 1
10 7 3
10 8 2
10 9 1
11 0 3
11 1 1
11 2 1
11 3 3
11 4 3
11 5 3
11 6 1
11 7 1
11 8 1
11 9 1
11 10 1
12 0 1
12 1 1
12 2 2
12 3 1
12 4 1
12 5 3
12 6 1
12 7 2
12 8 1
12 9 3
12 10 2
12 11 1
13 0 2
13 1 3
13 2 3
13 3 3
13 4 1
13 5 3
13 6 3
13 7 2
13 8 3
13 9 2
13 10 3
13 11 3
13 12 2
14 0 1
14 1 3
14 2 3
14 3 2
14 4 1
14 5 1
14 6 2
14 7 1
14 8 3
14 9 1
14 10 3
14 11 2
14 12 1
14 13 2
15 0 2
15 1 1
15 2 2
15 3 1
15 4 1
15 5 2
15 6 2
15 7 1
15 8 1
15 9 2
15 10 1
15 11 3
15 12 3
15 13 3
15 14 2
16 0 1
16 1 3
16 2 2
16 3 2
16 4 3
16 5 3
16 6 2
16 7 3
16 8 1
16 9 1
16 10 3
16 11 1
16 12 1
16 13 1
16 14 1
16 15 3
17 0 3
17 1 3
17 2 3
17 3 2
17 4 1
17 5 2
17 6 2
17 7 3
17 8 1
17 9 2
17 10 3
17 11 1
17 12 2
17 13 3
17 14 1
17 15 1
17 16 3
18 0 2
18 1 3
18 2 1
18 3 2
18 4 2
18 5 2
18 6 3
18 7 2
18 8 2
18 9 3
18 10 2
18 11 1
18 12 1
18 13 3
18 14 2
18 15 2
18 16 1
18 17 1
19 0 1
19 1 3
19 2 3
19 3 3
19 4 1
19 5 3
19 6 2
19 7 1
19 8 3
19 9 2
19 10 1
19 11 1
19 12 3
19 13 1
19 14 2
19 15 3
19 16 1
19 17 1
19 18 1
20 0 2
20 1 3
20 2 2
20 3 1
20 4 3
20 5 3
20 6 2
20 7 3
20 8 1
20 9 2
20 10 3
20 11 3
20 12 3
20 13 3
20 14 2
20 15 3
20 16 2
20 17 3
20 18 2
20 19 1
21 0 2
21 1 3
21 2 2
21 3 1
21 4 1
21 5 3
21 6 3
21 7 3
21 8 1
21 9 2
21 10 1
21 11 3
21 12 3
21 13 2
21 14 1
21 15 2
21 16 3
21 17 2
21 18 1
21 19 1
21 20 2
22 0 2
22 1 2
22 2 1
22 3 3
22 4 2
22 5 2
22 6 1
22 7 3
22 8 1
22 9 2
22 10 3
22 11 3
22 12 1
22 13 3
22 14 3
22 15 3
22 16 3
22 17 3
22 18 2
22 19 3
22 20 1
22 21 1
23 0 2
23 1 1
23 2 3
23 3 1
23 4 1
23 5 2
23 6 3
23 7 1
23 8 1
23 9 1
23 10 3
23 11 2
23 12 2
23 13 1
23 14 1
23 15 3
23 16 3
23 17 2
23 18 2
23 19 1
23 20 1
23 21 1
23 22 2
24 0 1
24 1 3
24 2 1
24 3 1
24 4 1
24 5 1
24 6 3
24 7 1
24 8 2
24 9 2
24 10 2
24 11 1
24 12 1
24 13 3
24 14 3
24 15 3
24 16 1
24 17 2
24 18 1
24 19 2
24 20 2
24 21 3
24 22 3
24 23 1
25 0 2
25 1 2
25 2 3
25 3 3
25 4 2
25 5 2
25 6 2
25 7 3
25 8 2
25 9 2
25 10 1
25 11 3
25 12 3
25 13 3
25 14 2
25 15 1
25 16 2
25 17 3
25 18 3
25 19 1
25 20 1
25 21 3
25 22 1
25 23 2
25 24 2
26 0 2
26 1 1
26 2 1
26 3 3
26 4 3
26 5 2
26 6 1
26 7 1
26 8 1
26 9 2
26 10 2
26 11 2
26 12 3
26 13 1
26 14 1
26 15 1
26 16 3
26 17 3
26 18 3
26 19 2
26 20 1
26 21 2
26 22 1
26 23 1
26 24 2
26 25 1
27 0 1
27 1 1
27 2 3
27 3 3
27 4 3
27 5 2
27 6 2
27 7 1
27 8 3
27 9 1
27 10 3
27 11 1
27 12 1
27 13 2
27 14 1
27 15 3
27 16 1
27 17 2
27 18 1
27 19 1
27 20 1
27 21 2
27 22 2
27 23 1
27 24 2
27 25 2
27 26 1
28 0 3
28 1 3
28 2 1
28 3 3
28 4 1
28 5 2
28 6 2
28 7 2
28 8 2
28 9 2
28 10 1
28 11 3
28 12 3
28 13 2
28 14 1
28 15 1
28 16 3
28 17 3
28 18 3
28 19 1
28 20 1
28 21 2
28 22 3
28 23 3
28 24 3
28 25 1
28 26 2
28 27 1
29 0 3
29 1 1
29 2 2
29 3 2
29 4 2
29 5 3
29 6 1
29 7 3
29 8 1
29 9 1
29 10 2
29 11 2
29 12 3
29 13 3
29 14 1
29 15 1
29 16 3
29 17 2
29 18 2
29 19 3
29 20 2
29 21 3
29 22 1
29 23 3
29 24 3
29 25 3
29 26 2
29 27 3
29 28 3
30 0 2
30 1 1
30 2 1
30 3 2
30 4 1
30 5 1
30 6 1
30 7 2
30 8 1
30 9 3
30 10 3
30 11 1
30 12 3
30 13 3
30 14 3
30 15 2
30 16 3
30 17 1
30 18 1
30 19 1
30 20 2
30 21 3
30 22 1
30 23 2
30 24 3
30 25 3
30 26 1
30 27 3
30 28 2
30 29 1
31 0 1
31 1 1
31 2 2
31 3 1
31 4 1
31 5 3
31 6 2
31 7 1
31 8 2
31 9 1
31 10 2
31 11 1
31 12 3
31 13 1
31 14 3
31 15 1
31 16 2
31 17 1
31 18 3
31 19 2
31 20 2
31 21 2
31 22 3
31 23 1
31 24 2
31 25 3
31 26 2
31 27 2
31 28 3
31 29 3
31 30 2
32 0 2
32 1 3
32 2 2
32 3 1
32 4 1
32 5 1
32 6 3
32 7 1
32 8 2
32 9 3
32 10 1
32 11 2
32 12 3
32 13 2
32 14 1
32 15 3
32 16 2
32 17 3
32 18 1
32 19 3
32 20 1
32 21 2
32 22 1
32 23 1
32 24 3
32 25 1
32 26 1
32 27 3
32 28 2
32 29 2
32 30 3
32 31 2
33 0 3
33 1 2
33 2 1
33 3 3
33 4 2
33 5 2
33 6 2
33 7 1
33 8 1
33 9 2
33 10 1
33 11 3
33 12 2
33 13 3
33 14 1
33 15 3
33 16 2
33 17 1
33 18 2
33 19 1
33 20 3
33 21 1
33 22 1
33 23 2
33 24 1
33 25 1
33 26 3
33 27 1
33 28 2
33 29 3
33 30 2
33 31 2
33 32 1
34 0 3
34 1 3
34 2 1
34 3 2
34 4 1
34 5 1
34 6 1
34 7 1
34 8 2
34 9 2
34 10 1
34 11 1
34 12 3
34 13 2
34 14 1
34 15 3
34 16 2
34 17 2
34 18 1
34 19 2
34 20 1
34 21 2
34 22 1
34 23 3
34 24 3
34 25 3
34 26 2
34 27 1
34 28 1
34 29 3
34 30 2
34 31 2
34 32 1
34 33 3
35 0 1
35 1 1
35 2 2
35 3 1
35 4 3
35 5 3
35 6 1
35 7 1
35 8 2
35 9 2
35 10 3
35 11 3
35 12 2
35 13 1
35 14 3
35 15 2
35 16 1
35 17 3
35 18 3
35 19 3
35 20 2
35 21 3
35 22 3
35 23 3
35 24 3
35 25 1
35 26 3
35 27 2
35 28 3
35 29 3
35 30 1
35 31 2
35 32 3
35 33 1
35 34 2
36 0 3
36 1 2
36 2 2
36 3 2
36 4 2
36 5 2
36 6 1
36 7 3
36 8 2
36 9 2
36 10 3
36 11 3
36 12 3
36 13 3
36 14 1
36 15 2
36 16 2
36 17 1
36 18 1
36 19 1
36 20 2
36 21 3
36 22 1
36 23 1
36 24 3
36 25 2
36 26 1
36 27 2
36 28 1
36 29 1
36 30 3
36 31 1
36 32 2
36 33 3
36 34 3
36 35 1
37 0 3
37 1 1
37 2 3
37 3 2
37 4 3
37 5 2
37 6 2
37 7 3
37 8 2
37 9 1
37 10 3
37 11 2
37 12 2
37 13 3
37 14 1
37 15 1
37 16 2
37 17 3
37 18 1
37 19 3
37 20 3
37 21 1
37 22 3
37 23 2
37 24 3
37 25 2
37 26 2
37 27 2
37 28 2
37 29 1
37 30 3
37 31 1
37 32 1
37 33 1
37 34 2
37 35 2
37 36 3
38 0 1
38 1 3
38 2 1
38 3 2
38 4 1
38 5 3
38 6 2
38 7 2
38 8 3
38 9 1
38 10 3
38 11 3
38 12 2
38 13 1
38 14 2
38 15 2
38 16 2
38 17 2
38 18 2
38 19 1
38 20 2
38 21 1
38 22 2
38 23 3
38 24 3
38 25 1
38 26 1
38 27 2
38 28 3
38 29 1
38 30 2
38 31 1
38 32 2
38 33 3
38 34 2
38 35 2
38 36 3
38 37 1
39 0 2
39 1 2
39 2 3
39 3 2
39 4 1
39 5 2
39 6 3
39 7 3
39 8 1
39 9 2
39 10 1
39 11 2
39 12 3
39 13 3
39 14 3
39 15 3
39 16 2
39 17 2
39 18 2
39 19 2
39 20 1
39 21 3
39 22 2
39 23 3
39 24 2
39 25 1
39 26 1
39 27 3
39 28 1
39 29 1
39 30 3
39 31 2
39 32 1
39 33 1
39 34 2
39 35 3
39 36 3
39 37 3
39 38 2
40 0 2
40 1 2
40 2 1
40 3 2
40 4 2
40 5 3
40 6 1
40 7 1
40 8 3
40 9 2
40 10 2
40 11 3
40 12 3
40 13 2
40 14 2
40 15 3
40 16 2
40 17 2
40 18 3
40 19 1
40 20 1
40 21 2
40 22 1
40 23 1
40 24 2
40 25 1
40 26 2
40 27 1
40 28 3
40 29 1
40 30 1
40 31 1
40 32 1
40 33 1
40 34 1
40 35 1
40 36 2
40 37 1
40 38 2
40 39 1
41 0 2
41 1 3
41 2 3
41 3 1
41 4 2
41 5 1
41 6 3
41 7 1
41 8 3
41 9 2
41 10 3
41 11 3
41 12 2
41 13 2
41 14 1
41 15 2
41 16 1
41 17 3
41 18 1
41 19 1
41 20 3
41 21 3
41 22 2
41 23 3
41 24 3
41 25 1
41 26 1
41 27 1
41 28 1
41 29 3
41 30 2
41 31 3
41 32 3
41 33 1
41 34 1
41 35 2
41 36 1
41 37 1
41 38 1
41 39 2
41 40 1
42 0 2
42 1 1
42 2 3
42 3 3
42 4 3
42 5 3
42 6 3
42 7 2
42 8 2
42 9 2
42 10 2
42 11 1
42 12 1
42 13 2
42 14 3
42 15 2
42 16 2
42 17 1
42 18 3
42 19 3
42 20 1
42 21 3
42 22 2
42 23 2
42 24 3
42 25 2
42 26 3
42 27 2
42 28 1
42 29 2
42 30 2
42 31 3
42 32 1
42 33 3
42 34 1
42 35 1
42 36 2
42 37 2
42 38 2
42 39 2
42 40 2
42 41 1
43 0 1
43 1 2
43 2 2
43 3 3
43 4 1
43 5 3
43 6 3
43 7 1
43 8 1
43 9 1
43 10 1
43 11 2
43 12 3
43 13 3
43 14 3
43 15 3
43 16 2
43 17 3
43 18 3
43 19 1
43 20 1
43 21 2
43 22 3
43 23 2
43 24 1
43 25 2
43 26 1
43 27 1
43 28 2
43 29 3
43 30 3
43 31 3
43 32 1
43 33 1
43 34 3
43 35 1
43 36 1
43 37 3
43 38 2
43 39 3
43 40 1
43 41 1
43 42 1
44 0 2
44 1 2
44 2 2
44 3 2
44 4 1
44 5 1
44 6 1
44 7 3
44 8 2
44 9 1
44 10 1
44 11 3
44 12 1
44 13 3
44 14 1
44 15 2
44 16 2
44 17 2
44 18 2
44 19 3
44 20 1
44 21 2
44 22 2
44 23 3
44 24 2
44 25 2
44 26 3
44 27 1
44 28 1
44 29 3
44 30 1
44 31 1
44 32 2
44 33 3
44 34 3
44 35 2
44 36 3
44 37 1
44 38 3
44 39 1
44 40 1
44 41 1
44 42 3
44 43 3
45 0 2
45 1 3
45 2 2
45 3 2
45 4 3
45 5 2
45 6 1
45 7 3
45 8 1
45 9 3
45 10 1
45 11 2
45 12 2
45 13 3
45 14 1
45 15 3
45 16 1
45 17 3
45 18 2
45 19 2
45 20 2
45 21 1
45 22 1
45 23 2
45 24 1
45 25 3
45 26 3
45 27 1
45 28 2
45 29 1
45 30 2
45 31 1
45 32 2
45 33 1
45 34 2
45 35 2
45 36 1
45 37 3
45 38 3
45 39 1
45 40 2
45 41 1
45 42 2
45 43 2
45 44 3
46 0 1
46 1 1
46 2 3
46 3 1
46 4 1
46 5 2
46 6 3
46 7 1
46 8 2
46 9 3
46 10 2
46 11 2
46 12 2
46 13 3
46 14 2
46 15 2
46 16 2
46 17 1
46 18 3
46 19 1
46 20 3
46 21 2
46 22 3
46 23 2
46 24 2
46 25 3
46 26 2
46 27 1
46 28 3
46 29 2
46 30 2
46 31 2
46 32 1
46 33 1
46 34 3
46 35 3
46 36 2
46 37 2
46 38 1
46 39 2
46 40 2
46 41 1
46 42 3
46 43 3
46 44 1
46 45 1
47 0 2
47 1 1
47 2 1
47 3 3
47 4 2
47 5 3
47 6 1
47 7 2
47 8 2
47 9 2
47 10 2
47 11 2
47 12 1
47 13 1
47 14 1
47 15 3
47 16 3
47 17 2
47 18 3
47 19 1
47 20 2
47 21 3
47 22 1
47 23 3
47 24 1
47 25 2
47 26 2
47 27 3
47 28 1
47 29 3
47 30 1
47 31 3
47 32 3
47 33 2
47 34 1
47 35 1
47 36 1
47 37 1
47 38 3
47 39 2
47 40 2
47 41 1
47 42 2
47 43 2
47 44 1
47 45 2
47 46 2
48 0 2
48 1 3
48 2 1
48 3 1
48 4 1
48 5 1
48 6 1
48 7 1
48 8 1
48 9 2
48 10 1
48 11 2
48 12 1
48 13 1
48 14 2
48 15 2
48 16 1
48 17 3
48 18 2
48 19 2
48 20 2
48 21 3
48 22 3
48 23 2
48 24 3
48 25 3
48 26 3
48 27 1
48 28 2
48 29 3
48 30 3
48 31 1
48 32 2
48 33 2
48 34 3
48 35 3
48 36 3
48 37 2
48 38 1
48 39 2
48 40 3
48 41 2
48 42 3
48 43 1
48 44 1
48 45 3
48 46 2
48 47 3
49 0 2
49 1 1
49 2 3
49 3 3
49 4 1
49 5 2
49 6 1
49 7 3
49 8 1
49 9 1
49 10 3
49 11 3
49 12 2
49 13 3
49 14 3
49 15 1
49 16 2
49 17 3
49 18 2
49 19 3
49 20 1
49 21 2
49 22 3
49 23 1
49 24 2
49 25 2
49 26 1
49 27 2
49 28 1
49 29 1
49 30 1
49 31 1
49 32 3
49 33 2
49 34 3
49 35 1
49 36 2
49 37 1
49 38 1
49 39 3
49 40 2
49 41 1
49 42 2
49 43 3
49 44 2
49 45 2
49 46 2
49 47 3
49 48 3
50 0 1
50 1 3
50 2 1
50 3 2
50 4 1
50 5 1
50 6 3
50 7 1
50 8 2
50 9 2
50 10 3
50 11 2
50 12 1
50 13 3
50 14 2
50 15 2
50 16 2
50 17 3
50 18 1
50 19 3
50 20 1
50 21 3
50 22 3
50 23 2
50 24 1
50 25 2
50 26 2
50 27 3
50 28 1
50 29 3
50 30 1
50 31 2
50 32 1
50 33 3
50 34 2
50 35 3
50 36 3
50 37 2
50 38 1
50 39 2
50 40 3
50 41 1
50 42 1
50 43 1
50 44 3
50 45 2
50 46 1
50 47 2
50 48 1
50 49 1
51 0 1
51 1 2
51 2 2
51 3 2
51 4 2
51 5 3
51 6 2
51 7 2
51 8 1
51 9 1
51 10 2
51 11 2
51 12 1
51 13 3
51 14 2
51 15 2
51 16 2
51 17 2
51 18 2
51 19 2
51 20 3
51 21 2
51 22 2
51 23 3
51 24 3
51 25 3
51 26 1
51 27 2
51 28 1
51 29 1
51 30 3
51 31 1
51 32 2
51 33 1
51 34 3
51 35 3
51 36 2
51 37 3
51 38 1
51 39 1
51 40 3
51 41 1
51 42 2
51 43 1
51 44 2
51 45 2
51 46 2
51 47 3
51 48 1
51 49 2
51 50 1
52 0 1
52 1 1
52 2 2
52 3 2
52 4 3
52 5 1
52 6 1
52 7 1
52 8 1
52 9 1
52 10 2
52 11 1
52 12 1
52 13 1
52 14 1
52 15 3
52 16 2
52 17 2
52 18 3
52 19 2
52 20 3
52 21 3
52 22 3
52 23 3
52 24 2
52 25 2
52 26 1
52 27 1
52 28 3
52 29 3
52 30 1
52 31 2
52 32 2
52 33 2
52 34 2
52 35 3
52 36 1
52 37 2
52 38 1
52 39 2
52 40 1
52 41 1
52 42 3
52 43 3
52 44 2
52 45 2
52 46 2
52 47 1
52 48 2
52 49 2
52 50 3
52 51 1
53 0 2
53 1 3
53 2 1
53 3 2
53 4 2
53 5 3
53 6 3
53 7 1
53 8 1
53 9 2
53 10 2
53 11 3
53 12 3
53 13 2
53 14 3
53 15 3
53 16 2
53 17 3
53 18 2
53 19 3
53 20 3
53 21 2
53 22 3
53 23 1
53 24 1
53 25 2
53 26 3
53 27 3
53 28 1
53 29 1
53 30 1
53 31 2
53 32 2
53 33 2
53 34 3
53 35 2
53 36 3
53 37 2
53 38 3
53 39 3
53 40 1
53 41 1
53 42 3
53 43 2
53 44 2
53 45 2
53 46 1
53 47 3
53 48 1
53 49 1
53 50 2
53 51 1
53 52 1
54 0 1
54 1 2
54 2 1
54 3 1
54 4 2
54 5 2
54 6 2
54 7 3
54 8 2
54 9 2
54 10 3
54 11 2
54 12 1
54 13 2
54 14 1
54 15 3
54 16 3
54 17 3
54 18 2
54 19 3
54 20 1
54 21 1
54 22 2
54 23 1
54 24 2
54 25 1
54 26 2
54 27 1
54 28 2
54 29 2
54 30 1
54 31 3
54 32 1
54 33 3
54 34 2
54 35 1
54 36 3
54 37 3
54 38 2
54 39 1
54 40 2
54 41 3
54 42 1
54 43 3
54 44 1
54 45 3
54 46 2
54 47 2
54 48 1
54 49 3
54 50 3
54 51 2
54 52 1
54 53 2
55 0 3
55 1 3
55 2 1
55 3 1
55 4 3
55 5 3
55 6 2
55 7 3
55 8 2
55 9 1
55 10 2
55 11 2
55 12 2
55 13 1
55 14 3
55 15 1
55 16 3
55 17 2
55 18 3
55 19 3
55 20 1
55 21 3
55 22 3
55 23 2
55 24 2
55 25 2
55 26 3
55 27 2
55 28 1
55 29 3
55 30 2
55 31 3
55 32 2
55 33 1
55 34 2
55 35 3
55 36 1
55 37 1
55 38 3
55 39 2
55 40 3
55 41 1
55 42 3
55 43 3
55 44 2
55 45 2
55 46 3
55 47 1
55 48 1
55 49 1
55 50 3
55 51 1
55 52 3
55 53 1
55 54 2
56 0 1
56 1 2
56 2 1
56 3 1
56 4 2
56 5 1
56 6 1
56 7 2
56 8 2
56 9 1
56 10 1
56 11 3
56 12 3
56 13 2
56 14 3
56 15 1
56 16 3
56 17 2
56 18 3
56 19 3
56 20 2
56 21 3
56 22 3
56 23 3
56 24 2
56 25 3
56 26 2
56 27 1
56 28 1
56 29 2
56 30 2
56 31 3
56 32 3
56 33 2
56 34 2
56 35 3
56 36 2
56 37 3
56 38 2
56 39 2
56 40 2
56 41 2
56 42 1
56 43 1
56 44 2
56 45 2
56 46 1
56 47 2
56 48 1
56 49 3
56 50 1
56 51 2
56 52 3
56 53 3
56 54 2
56 55 2
57 0 2
57 1 2
57 2 1
57 3 1
57 4 1
57 5 3
57 6 2
57 7 1
57 8 2
57 9 1
57 10 3
57 11 1
57 12 3
57 13 3
57 14 3
57 15 2
57 16 3
57 17 3
57 18 2
57 19 1
57 20 2
57 21 1
57 22 1
57 23 2
57 24 3
57 25 3
57 26 3
57 27 1
57 28 3
57 29 2
57 30 1
57 31 3
57 32 1
57 33 2
57 34 1
57 35 3
57 36 2
57 37 1
57 38 1
57 39 3
57 40 2
57 41 2
57 42 1
57 43 3
57 44 3
57 45 3
57 46 1
57 47 2
57 48 3
57 49 1
57 50 3
57 51 2
57 52 1
57 53 1
57 54 1
57 55 3
57 56 2
58 0 1
58 1 3
58 2 2
58 3 1
58 4 2
58 5 1
58 6 1
58 7 3
58 8 1
58 9 1
58 10 2
58 11 1
58 12 2
58 13 2
58 14 1
58 15 1
58 16 1
58 17 2
58 18 2
58 19 2
58 20 1
58 21 1
58 22 1
58 23 1
58 24 2
58 25 3
58 26 1
58 27 1
58 28 1
58 29 2
58 30 1
58 31 1
58 32 3
58 33 1
58 34 2
58 35 3
58 36 1
58 37 1
58 38 1
58 39 2
58 40 2
58 41 1
58 42 2
58 43 1
58 44 2
58 45 1
58 46 3
58 47 1
58 48 3
58 49 3
58 50 2
58 51 3
58 52 3
58 53 3
58 54 3
58 55 1
58 56 3
58 57 2
59 0 1
59 1 1
59 2 1
59 3 2
59 4 2
59 5 3
59 6 1
59 7 2
59 8 3
59 9 3
59 10 3
59 11 2
59 12 2
59 13 1
59 14 1
59 15 2
59 16 3
59 17 1
59 18 3
59 19 2
59 20 3
59 21 3
59 22 2
59 23 1
59 24 3
59 25 3
59 26 1
59 27 2
59 28 1
59 29 3
59 30 3
59 31 1
59 32 1
59 33 1
59 34 2
59 35 3
59 36 1
59 37 3
59 38 1
59 39 3
59 40 2
59 41 1
59 42 3
59 43 1
59 44 2
59 45 3
59 46 3
59 47 3
59 48 2
59 49 3
59 50 1
59 51 1
59 52 3
59 53 1
59 54 1
59 55 3
59 56 1
59 57 1
59 58 1
